c 
c G(k,n,p) graph
c graph gen seed     : 3719
c number of vertices : 60
c max number of edges: 900
c number of classes  : 2
c edge density       : 0.400000
c edge probability   : 0.800000
c data structure     : dense
c
c           Graph Stats
c number of vertices  : 60
c nonisolated vertices: 60
c number of edges     : 732
c edge density        : 0.413559
c max degree          : 29
c avg degree          : 24.40
c min degree          : 17
p col 60 732
e 1 2
e 1 3
e 1 4
e 1 5
e 1 6
e 1 8
e 1 10
e 1 19
e 1 20
e 1 22
e 1 23
e 1 28
e 1 29
e 1 31
e 1 33
e 1 34
e 1 35
e 1 36
e 1 38
e 1 42
e 1 44
e 1 48
e 1 49
e 1 55
e 1 57
e 1 60
e 2 7
e 2 11
e 2 13
e 2 14
e 2 15
e 2 16
e 2 17
e 2 18
e 2 21
e 2 25
e 2 26
e 2 27
e 2 30
e 2 32
e 2 37
e 2 39
e 2 40
e 2 41
e 2 43
e 2 46
e 2 50
e 2 51
e 2 52
e 2 58
e 2 59
e 3 7
e 3 11
e 3 12
e 3 13
e 3 14
e 3 15
e 3 16
e 3 17
e 3 18
e 3 21
e 3 24
e 3 26
e 3 27
e 3 30
e 3 32
e 3 37
e 3 39
e 3 40
e 3 41
e 3 43
e 3 46
e 3 50
e 3 51
e 3 52
e 3 54
e 3 58
e 3 59
e 4 7
e 4 11
e 4 13
e 4 14
e 4 15
e 4 16
e 4 17
e 4 21
e 4 26
e 4 27
e 4 30
e 4 32
e 4 37
e 4 39
e 4 40
e 4 43
e 4 46
e 4 47
e 4 50
e 4 51
e 4 52
e 4 54
e 4 59
e 5 7
e 5 11
e 5 12
e 5 13
e 5 14
e 5 15
e 5 16
e 5 17
e 5 18
e 5 21
e 5 24
e 5 26
e 5 27
e 5 30
e 5 32
e 5 37
e 5 40
e 5 41
e 5 43
e 5 46
e 5 47
e 5 50
e 5 51
e 5 54
e 5 58
e 5 59
e 6 7
e 6 11
e 6 12
e 6 13
e 6 14
e 6 15
e 6 16
e 6 18
e 6 21
e 6 24
e 6 25
e 6 26
e 6 27
e 6 30
e 6 32
e 6 40
e 6 41
e 6 43
e 6 46
e 6 51
e 6 52
e 6 54
e 6 58
e 6 59
e 7 8
e 7 9
e 7 10
e 7 19
e 7 20
e 7 22
e 7 23
e 7 28
e 7 33
e 7 34
e 7 35
e 7 36
e 7 38
e 7 42
e 7 44
e 7 48
e 7 53
e 7 55
e 7 56
e 7 57
e 8 11
e 8 12
e 8 13
e 8 15
e 8 16
e 8 17
e 8 18
e 8 24
e 8 25
e 8 26
e 8 27
e 8 32
e 8 37
e 8 39
e 8 40
e 8 41
e 8 43
e 8 47
e 8 50
e 8 51
e 8 52
e 8 54
e 8 59
e 9 11
e 9 13
e 9 14
e 9 16
e 9 17
e 9 18
e 9 21
e 9 24
e 9 25
e 9 26
e 9 27
e 9 30
e 9 32
e 9 39
e 9 40
e 9 41
e 9 46
e 9 50
e 9 51
e 9 58
e 9 59
e 10 11
e 10 13
e 10 14
e 10 16
e 10 17
e 10 18
e 10 21
e 10 24
e 10 25
e 10 26
e 10 27
e 10 30
e 10 32
e 10 39
e 10 41
e 10 43
e 10 46
e 10 47
e 10 50
e 10 51
e 10 52
e 10 54
e 10 58
e 11 19
e 11 20
e 11 22
e 11 23
e 11 28
e 11 29
e 11 31
e 11 33
e 11 34
e 11 36
e 11 38
e 11 44
e 11 48
e 11 49
e 11 53
e 11 55
e 11 56
e 11 57
e 11 60
e 12 19
e 12 20
e 12 22
e 12 23
e 12 28
e 12 29
e 12 31
e 12 34
e 12 35
e 12 36
e 12 38
e 12 48
e 12 49
e 12 53
e 12 55
e 12 56
e 12 57
e 12 60
e 13 19
e 13 20
e 13 22
e 13 23
e 13 28
e 13 29
e 13 31
e 13 35
e 13 36
e 13 45
e 13 48
e 13 49
e 13 53
e 13 55
e 13 56
e 14 19
e 14 20
e 14 22
e 14 23
e 14 28
e 14 31
e 14 33
e 14 34
e 14 36
e 14 38
e 14 42
e 14 44
e 14 45
e 14 53
e 14 55
e 14 60
e 15 19
e 15 20
e 15 22
e 15 23
e 15 28
e 15 31
e 15 33
e 15 35
e 15 36
e 15 38
e 15 44
e 15 49
e 15 53
e 15 55
e 15 56
e 15 57
e 15 60
e 16 19
e 16 20
e 16 22
e 16 23
e 16 28
e 16 36
e 16 38
e 16 42
e 16 44
e 16 49
e 16 55
e 16 56
e 16 57
e 17 19
e 17 23
e 17 28
e 17 31
e 17 33
e 17 34
e 17 35
e 17 36
e 17 38
e 17 44
e 17 45
e 17 48
e 17 53
e 17 55
e 17 56
e 17 57
e 17 60
e 18 19
e 18 20
e 18 22
e 18 23
e 18 28
e 18 29
e 18 31
e 18 33
e 18 34
e 18 35
e 18 36
e 18 48
e 18 53
e 18 56
e 18 57
e 18 60
e 19 21
e 19 24
e 19 25
e 19 26
e 19 27
e 19 30
e 19 32
e 19 37
e 19 39
e 19 40
e 19 41
e 19 43
e 19 46
e 19 47
e 19 50
e 19 51
e 19 52
e 19 58
e 19 59
e 20 21
e 20 24
e 20 25
e 20 26
e 20 27
e 20 30
e 20 32
e 20 39
e 20 40
e 20 41
e 20 43
e 20 47
e 20 50
e 20 51
e 20 52
e 20 59
e 21 22
e 21 28
e 21 29
e 21 33
e 21 34
e 21 35
e 21 36
e 21 38
e 21 45
e 21 48
e 21 49
e 21 55
e 21 57
e 21 60
e 22 24
e 22 25
e 22 26
e 22 27
e 22 30
e 22 39
e 22 41
e 22 43
e 22 46
e 22 47
e 22 50
e 22 51
e 22 52
e 22 54
e 22 58
e 22 59
e 23 24
e 23 25
e 23 27
e 23 30
e 23 32
e 23 37
e 23 39
e 23 40
e 23 41
e 23 46
e 23 50
e 23 51
e 23 52
e 23 54
e 23 58
e 23 59
e 24 28
e 24 29
e 24 31
e 24 33
e 24 34
e 24 36
e 24 38
e 24 42
e 24 45
e 24 48
e 24 49
e 24 55
e 24 56
e 24 57
e 24 60
e 25 28
e 25 29
e 25 31
e 25 33
e 25 34
e 25 35
e 25 38
e 25 42
e 25 44
e 25 45
e 25 48
e 25 49
e 25 53
e 25 55
e 25 56
e 25 57
e 25 60
e 26 28
e 26 29
e 26 33
e 26 34
e 26 36
e 26 38
e 26 45
e 26 48
e 26 49
e 26 53
e 26 55
e 26 56
e 26 57
e 27 29
e 27 31
e 27 33
e 27 34
e 27 35
e 27 36
e 27 38
e 27 42
e 27 44
e 27 45
e 27 48
e 27 49
e 27 53
e 27 55
e 27 56
e 27 57
e 27 60
e 28 30
e 28 32
e 28 39
e 28 40
e 28 46
e 28 47
e 28 50
e 28 51
e 28 52
e 28 54
e 28 58
e 28 59
e 29 30
e 29 32
e 29 37
e 29 39
e 29 40
e 29 41
e 29 43
e 29 46
e 29 47
e 29 50
e 29 51
e 29 52
e 29 54
e 29 58
e 29 59
e 30 31
e 30 33
e 30 34
e 30 35
e 30 36
e 30 38
e 30 42
e 30 45
e 30 49
e 30 53
e 30 55
e 30 56
e 30 57
e 30 60
e 31 32
e 31 37
e 31 40
e 31 41
e 31 43
e 31 46
e 31 47
e 31 50
e 31 51
e 31 52
e 31 54
e 31 59
e 32 33
e 32 36
e 32 38
e 32 45
e 32 49
e 32 53
e 32 55
e 32 56
e 32 57
e 32 60
e 33 37
e 33 39
e 33 40
e 33 41
e 33 43
e 33 46
e 33 47
e 33 50
e 33 51
e 33 52
e 33 58
e 34 37
e 34 40
e 34 41
e 34 43
e 34 46
e 34 47
e 34 50
e 34 52
e 34 54
e 34 58
e 34 59
e 35 37
e 35 39
e 35 41
e 35 43
e 35 46
e 35 47
e 35 51
e 35 52
e 35 54
e 35 58
e 35 59
e 36 37
e 36 39
e 36 40
e 36 43
e 36 46
e 36 50
e 36 51
e 36 52
e 36 54
e 36 58
e 36 59
e 37 38
e 37 44
e 37 45
e 37 48
e 37 49
e 37 53
e 37 55
e 37 56
e 37 57
e 37 60
e 38 40
e 38 41
e 38 43
e 38 46
e 38 47
e 38 50
e 38 52
e 38 58
e 39 42
e 39 45
e 39 48
e 39 49
e 39 57
e 39 60
e 40 42
e 40 44
e 40 48
e 40 53
e 40 55
e 40 56
e 40 57
e 40 60
e 41 42
e 41 44
e 41 48
e 41 49
e 41 53
e 41 55
e 41 57
e 42 46
e 42 47
e 42 50
e 42 51
e 42 52
e 42 54
e 42 58
e 42 59
e 43 44
e 43 45
e 43 48
e 43 49
e 43 53
e 43 55
e 43 56
e 43 57
e 43 60
e 44 46
e 44 47
e 44 50
e 44 51
e 44 54
e 44 58
e 44 59
e 45 46
e 45 50
e 45 52
e 45 54
e 46 53
e 46 55
e 46 56
e 46 57
e 46 60
e 47 48
e 47 49
e 47 55
e 47 57
e 47 60
e 48 50
e 48 51
e 48 52
e 48 54
e 48 58
e 48 59
e 49 50
e 49 52
e 49 54
e 49 58
e 49 59
e 50 55
e 50 56
e 50 57
e 50 60
e 51 55
e 51 56
e 51 57
e 51 60
e 52 53
e 52 55
e 52 56
e 52 57
e 52 60
e 53 54
e 53 58
e 53 59
e 54 55
e 54 56
e 54 60
e 55 58
e 56 58
e 56 59
e 57 58
e 58 60
e 59 60
